unsat
(:binary-propagations  51
 :conflicts            1
 :final-checks         1
 :max-generation       1
 :max-memory           28.07
 :memory               22.12
 :mk-bool-var          3859
 :mk-clause            1388
 :mk-clause-binary     2776
 :num-allocs           99751255
 :num-checks           1
 :propagations         51
 :quant-instantiations 888
 :restarts             1
 :rlimit-count         440455
 :time                 0.16)
